5 5
2 66 3 25 1 58 0 41 4 6
2 75 3 38 4 6 0 45 1 75
1 14 0 66 3 40 4 3 2 99
4 97 1 24 3 19 0 18 2 64
3 88 4 35 1 62 0 1 2 25
-1
0 1 2 4 5
0 1 2 3 5
0 2 3 4 5
0 4 5
0 2 4 5
-2
89 94 284 216
87 140 176 240
94 141 142 266
201 297
124 268 237

329 10
11 23 8 18 3
10 16 22 2 9
5 0 14 24 19
20 12 6 1 17
15 21 13 7 4
